p edge 50 298 10
v 4 5 8 34 38
v 5 9 13 29 43 48
v 6 3 10 12 33 35 45
v 5 6 16 20 30 44
v 4 15 25 26 28
v 6 1 2 14 24 36 41
v 3 11 18 21
v 4 4 37 40 50
v 5 17 19 27 31 46
v 8 7 22 23 32 39 42 47 49
e 1 3
e 1 7
e 1 14
e 1 17
e 1 18
e 1 27
e 1 42
e 1 44
e 1 48
e 2 3
e 2 4
e 2 5
e 2 8
e 2 9
e 2 11
e 2 12
e 2 15
e 2 16
e 2 19
e 2 24
e 2 26
e 2 27
e 2 29
e 2 34
e 2 41
e 2 42
e 2 46
e 2 47
e 3 7
e 3 10
e 3 23
e 3 25
e 3 27
e 3 30
e 3 32
e 3 40
e 3 42
e 3 45
e 4 5
e 4 16
e 4 17
e 4 22
e 4 25
e 4 31
e 4 32
e 4 33
e 4 40
e 4 41
e 4 46
e 5 18
e 5 24
e 5 26
e 5 37
e 5 43
e 5 46
e 5 48
e 5 49
e 6 10
e 6 23
e 6 27
e 6 31
e 6 32
e 6 34
e 6 36
e 6 38
e 6 40
e 6 50
e 7 8
e 7 12
e 7 14
e 7 20
e 7 21
e 7 25
e 7 28
e 7 29
e 7 30
e 7 35
e 7 37
e 7 45
e 7 50
e 8 10
e 8 17
e 8 18
e 8 20
e 8 25
e 8 27
e 8 35
e 8 37
e 9 13
e 9 21
e 9 28
e 9 30
e 9 36
e 9 38
e 9 42
e 9 48
e 10 11
e 10 14
e 10 15
e 10 23
e 10 26
e 10 36
e 10 39
e 10 41
e 10 43
e 10 45
e 11 12
e 11 15
e 11 20
e 11 24
e 11 25
e 11 30
e 11 32
e 11 35
e 11 39
e 11 43
e 11 45
e 11 49
e 11 50
e 12 13
e 12 16
e 12 22
e 12 23
e 12 26
e 12 27
e 12 32
e 12 38
e 12 46
e 13 15
e 13 16
e 13 18
e 13 25
e 13 29
e 13 37
e 13 40
e 13 41
e 13 44
e 14 15
e 14 26
e 14 29
e 14 30
e 14 46
e 15 16
e 15 17
e 15 20
e 15 24
e 15 25
e 15 26
e 15 27
e 15 28
e 15 30
e 15 38
e 15 46
e 16 22
e 16 24
e 16 26
e 16 30
e 16 33
e 16 34
e 16 37
e 16 39
e 16 44
e 16 45
e 17 18
e 17 19
e 17 21
e 17 36
e 17 42
e 17 43
e 17 46
e 18 21
e 18 23
e 18 25
e 18 26
e 18 28
e 18 31
e 18 34
e 18 35
e 18 44
e 18 48
e 18 49
e 18 50
e 19 21
e 19 26
e 19 33
e 19 36
e 19 44
e 19 45
e 19 46
e 19 50
e 20 30
e 20 38
e 20 44
e 20 47
e 21 28
e 21 33
e 21 44
e 21 45
e 21 46
e 22 24
e 22 25
e 22 27
e 22 28
e 22 31
e 22 33
e 22 34
e 22 41
e 22 42
e 22 47
e 22 50
e 23 24
e 23 29
e 23 30
e 23 31
e 23 32
e 23 33
e 23 44
e 23 45
e 23 47
e 24 26
e 24 31
e 24 34
e 24 40
e 24 42
e 24 43
e 24 45
e 24 48
e 24 49
e 24 50
e 25 31
e 25 32
e 25 45
e 25 48
e 25 49
e 26 37
e 26 44
e 26 45
e 27 31
e 27 35
e 27 37
e 28 30
e 28 32
e 28 34
e 28 41
e 29 31
e 29 33
e 29 39
e 29 43
e 29 47
e 30 31
e 30 36
e 30 38
e 30 43
e 30 46
e 31 32
e 31 36
e 31 38
e 31 41
e 31 42
e 31 50
e 32 41
e 32 50
e 33 36
e 33 45
e 33 50
e 34 35
e 34 43
e 34 46
e 34 49
e 35 41
e 35 43
e 35 45
e 36 37
e 36 39
e 36 41
e 36 42
e 36 46
e 37 46
e 37 47
e 38 39
e 38 41
e 38 48
e 38 49
e 39 41
e 39 42
e 39 50
e 40 41
e 40 43
e 40 44
e 41 43
e 41 44
e 41 45
e 41 47
e 42 50
e 43 48
e 45 48
e 48 50
e 49 50
